100
128
43
60
51
35
62
55
33
55
56
41
36
1
4
32
2
5
36
51
56
51
13
18
11
55
17
12
27
18
51
19
28
18
9
30
26
41
14
53
32
23
3
11
61
28
15
36
64
25
43
16
16
17
35
1
51
52
38
31
16
25
32
25
14
39
18
30
4
4
16
24
2
27
60
33
48
36
28
59
22
31
32
35
30
1
22
57
59
24
39
54
39
46
28
35
18
37
25
53
34
56